\\ -------------------------------------
\\ This file was written manually
\\ Task 'Toy2 - shifted'
\\ All zero weights are replaced with 1
\\ Model 'Q3'
\\ Big M is assigned to 10000
\\ LP format - for model browsing. Use MPS format to Capture full model detail.
\\ -------------------------------------

\\
Minimize
\\ Eq (1):
80 x[1,2] + 65 x[3,1] + 100 x[4,1] + 75 x[5,1] + 80 x[1,6] + 90 x[1,7] + 90 x[1,8]  + 60 x[9,1] + 95 x[10,1] + 110 x[11,1] + 
25 x[2,3] + 22 x[2,4]  + 25 x[2,5] + 70 x[2,6] + 70 x[6,2] + 65 x[2,7] + 65 x[7,2] + 90 x[2,8] + 90 x[8,2] + 75 x[2,9] + 75 x[9,2] + 55 x[2,10] + 55 x[10,2] + 110 x[2,11] + 110 x[11,2] + 
45 x[3,4] + 45 x[4,3] + 45 x[3,5] + 45 x[5,3] + 85 x[3,6] + 85 x[6,3] + 85 x[3,7] + 85 x[7,3] + 105 x[3,8] + 105 x[8,3] + 80 x[3,9] + 80 x[9,3] + 80 x[3,10] + 80 x[10,3] + 130 x[3,11] + 130 x[11,3] +
40 x[4,5] + 40 x[5,4] + 80 x[4,6] + 80 x[6,4] + 75 x[4,7] + 75 x[7,4] + 105 x[4,8] + 105 x[8,4] + 80 x[4,9] + 80 x[9,4] + 60 x[4,10] + 60 x[10,4] + 120 x[4,11] + 120 x[11,4] +
35 x[5,6] + 35 x[6,5] + 40 x[5,7] + 40 x[7,5] + 45 x[5,8] + 45 x[8,5] + 52 x[5,9] + 52 x[9,5] + 35 x[5,10] + 35 x[10,5] + 90 x[5,11] + 90 x[11,5] + 
x[6,7] + 10 x[7,6] + 25 x[6,8] + 25 x[8,6] + 25 x[6,9] + 35 x[6,10] + 45 x[6,11] + 
30 x[7,8] + 30 x[8,7] + 35 x[7,9] + 20 x[7,10] + 50 x[7,11] + 
35 x[8,9] + 50 x[8,10]  + 25 x[8,11] + 
52 x[9,10] + 52 x[10,9] + 60 x[9,11] + 60 x[11,9] + 
65 x[10,11] + 65 x[11,10]

Subject To
\\ Eq (2):
(1_C1): z[1] = 1
(1_C2): z[2] = 1
(1_C3): z[3] + z[4] + z[5] = 1
(1_C4): z[6] + z[7] = 1
(1_C5): z[8] = 1
(1_C6): z[9] + z[10] + z[11] = 1


\\Eq (3):
(2_1): x[1,2] + x[1,6] + x[1,7] + x[1,8] -  z[1] = 0	
(2_2): x[2,3] + x[2,4] + x[2,5] + x[2,6] + x[2,7] + x[2,8] + x[2,9] + x[2,10] + x[2,11] - z[2] = 0
(2_3): x[3,1] + x[3,4] + x[3,5] + x[3,6] + x[3,7] + x[3,8] + x[3,9] + x[3,10] + x[3,11]  - z[3] = 0
(2_4): x[4,1] + x[4,3] + x[4,5] + x[4,6] + x[4,7] + x[4,8] + x[4,9] + x[4,10] + x[4,11] - z[4] = 0
(2_5): x[5,1] + x[5,3] + x[5,4] + x[5,6] + x[5,7] + x[5,8] + x[5,9] + x[5,10] + x[5,11] - z[5] = 0
(2_6):  x[6,2] + x[6,3] + x[6,4] + x[6,5] + x[6,7] + x[6,8] + x[6,9] + x[6,10] + x[6,11] - z[6] = 0
(2_7):  x[7,2] + x[7,3] + x[7,4] + x[7,5] + x[7,6] + x[7,8] + x[7,9] + x[7,10] + x[7,11] - z[7] = 0
(2_8):  x[8,2] + x[8,3] + x[8,4] + x[8,5] + x[8,6] + x[8,7] + x[8,9] + x[8,10] + x[8,11] - z[8] = 0
(2_9): x[9,1] + x[9,2] + x[9,3] + x[9,4] + x[9,5] + x[9,10] + x[9,11] - z[9] = 0
(2_10): x[10,1] + x[10,2] + x[10,3] + x[10,4] + x[10,5] + x[10,9] + x[10,11] - z[10] = 0
(2_11): x[11,1] + x[11,2] + x[11,3] + x[11,4] + x[11,5] + x[11,9] + x[11,10] - z[11] = 0


\\Eq (4):
(3_1): x[3,1] + x[4,1] + x[5,1]   + x[9,1] + x[10,1] + x[11,1] - z[1] = 0 	
(3_2): x[1,2] + x[6,2] + x[7,2] + x[8,2] + x[9,2] + x[10,2] + x[11,2] - z[2] = 0
(3_3): x[2,3] + x[4,3] + x[5,3] + x[6,3] + x[7,3] + x[8,3] + x[9,3] + x[10,3] + x[11,3] - z[3] = 0
(3_4): x[2,4] + x[3,4] + x[5,4] + x[6,4] + x[7,4] + x[8,4] + x[9,4] + x[10,4] + x[11,4] - z[4] = 0
(3_5): x[2,5] + x[3,5] + x[4,5] + x[6,5] + x[7,5] + x[8,5] + x[9,5] + x[10,5] + x[11,5] - z[5] = 0  
(3_6): x[1,6] + x[2,6] + x[3,6] + x[4,6] + x[5,6] + x[7,6] + x[8,6] - z[6] = 0
(3_7): x[1,7] + x[2,7] + x[3,7] + x[4,7] + x[5,7] + x[6,7] + x[8,7] - z[7] = 0
(3_8): x[1,8] + x[2,8] + x[3,8] + x[4,8] + x[5,8] + x[6,8] + x[7,8] - z[8] = 0
(3_9): x[2,9] + x[3,9] + x[4,9] + x[5,9] + x[6,9] + x[7,9] + x[8,9] + x[10,9] + x[11,9] - z[9] = 0
(3_10): x[2,10] + x[3,10] + x[4,10] + x[5,10] + x[6,10] + x[7,10] + x[8,10] + x[9,10] + x[11,10]  - z[10] = 0
(3_11): x[2,11] + x[3,11] + x[4,11] + x[5,11] + x[6,11] + x[7,11] + x[8,11] + x[9,11] + x[10,11] -  z[11] = 0


\\Eq (5):
(4_1): u[1,2] + u[1,3] + u[1,4] + u[1,5] + u[1,6] = 1
(4_2): u[2,1] + u[2,3] + u[2,4] + u[2,5] + u[2,6] = 1
(4_3): u[3,1] + u[3,2] + u[3,4] + u[3,5] + u[3,6] = 1
(4_4): u[4,1] + u[4,2] + u[4,3] + u[4,5] + u[4,6] = 1
(4_5): u[5,1] + u[5,2] + u[5,3] + u[5,4] + u[5,6] = 1
(4_6): u[6,1] + u[6,2] + u[6,3] + u[6,4] + u[6,5] = 1
(4_1_1): u[2,1] + u[3,1] + u[4,1] + u[5,1] + u[6,1] = 1
(4_1_2): u[1,2] + u[3,2] + u[4,2] + u[5,2] + u[6,2] = 1
(4_1_3): u[2,3] + u[1,3] + u[4,3] + u[5,3] + u[6,3] = 1
(4_1_4): u[2,4] + u[3,4] + u[1,4] + u[5,4] + u[6,4] = 1
(4_1_5): u[2,5] + u[3,5] + u[4,5] + u[1,5] + u[6,5] = 1
(4_1_6): u[2,6] + u[3,6] + u[4,6] + u[5,6] + u[1,6] = 1


\\Eq (6):
(5_1_2): x[1,2]  - u[1,2] = 0
(5_2_1): u[2,1] = 0
(5_1_3): u[1,3] = 0
(5_3_1): x[3,1] + x[4,1] + x[5,1] - u[3,1] = 0
(5_1_4): x[1,6] + x[1,7] - u[1,4] = 0
(5_4_1): u[4,1] = 0
(5_1_5): x[1,8] - u[1,5] = 0
(5_5_1): u[5,1] = 0
(5_1_6): u[1,6] = 0
(5_6_1): x[9,1] + x[10,1] + x[11,1] - u[6,1] = 0
(5_2_3): x[2,3] + x[2,4] + x[2,5] - u[2,3] = 0
(5_3_2): u[3,2] = 0
(5_2_4): x[2,6] + x[2,7] - u[2,4] = 0
(5_4_2): x[6,2] + x[7,2] - u[4,2] = 0
(5_2_5): x[2,8] - u[2,5] = 0 
(5_5_2): x[8,2] - u[5,2] = 0
(5_2_6): x[2,9] + x[2,10] + x[2,11] - u[2,6] = 0
(5_6_2): x[9,2] + x[10,2] + x[11,2] - u[6,2] = 0
(5_3_4): x[3,6] + x[3,7] + x[4,6] + x[4,7] + x[5,6] + x[5,7] - u[3,4] = 0
(5_4_3): x[6,3] + x[7,3] + x[6,4] + x[7,4] + x[6,5] + x[7,5] - u[4,3] = 0
(5_3_5): x[3,8] + x[4,8] + x[5,8] - u[3,5] = 0
(5_5_3): x[8,3] + x[8,4] + x[8,5] - u[5,3] = 0
(5_3_6): x[3,9] + x[3,10] + x[3,11] + x[4,9] + x[4,10] + x[4,11] + x[5,9] + x[5,10] + x[5,11] - u[3,6] = 0
(5_6_3): x[9,3] + x[10,3] + x[11,3] + x[9,4] + x[10,4] + x[11,4] + x[9,5] + x[10,5] + x[11,5] - u[6,3] = 0
(5_4_5): x[6,8] + x[7,8] - u[4,5] = 0
(5_5_4): x[8,6] + x[8,7] - u[5,4] = 0
(5_4_6): x[6,9] + x[6,10] + x[6,11] + x[7,9] + x[7,10] + x[7,11] - u[4,6] = 0
(5_6_4): u[6,4] = 0
(5_5_6): x[8,9] + x[8,10] + x[8,11] - u[5,6] = 0
(5_6_5): u[6,5] = 0 


\\Eq (7):
(6_2_3_4): y[2,3] + y[3,4] + y[4,2] <= 2
(6_2_4_3): y[2,4] + y[4,3] + y[3,2] <= 2
(6_2_3_5): y[2,3] + y[3,5] + y[5,2] <= 2
(6_2_5_3): y[2,5] + y[5,3] + y[3,2] <= 2
(6_2_3_6): y[2,3] + y[3,6] + y[6,2] <= 2
(6_2_6_3): y[2,6] + y[6,3] + y[3,2] <= 2
(6_2_4_5): y[2,4] + y[4,5] + y[5,2] <= 2
(6_2_5_4): y[2,5] + y[5,4] + y[4,2] <= 2
(6_2_4_6): y[2,4] + y[4,6] + y[6,2] <= 2
(6_2_6_4): y[2,6] + y[6,4] + y[4,2] <= 2
(6_2_5_6): y[2,5] + y[5,6] + y[6,2] <= 2
(6_2_6_5): y[2,6] + y[6,5] + y[5,2] <= 2
(6_3_4_5): y[3,4] + y[4,5] + y[5,3] <= 2
(6_3_5_4): y[3,5] + y[5,4] + y[4,3] <= 2
(6_3_4_6): y[3,4] + y[4,6] + y[6,3] <= 2
(6_3_6_4): y[3,6] + y[6,4] + y[4,3] <= 2
(6_3_5_6): y[3,5] + y[5,6] + y[6,3] <= 2
(6_3_6_5): y[3,6] + y[6,5] + y[5,3] <= 2
(6_4_5_6): y[4,5] + y[5,6] + y[6,4] <= 2
(6_4_6_5): y[4,6] + y[6,5] + y[5,4] <= 2


\\Eq (8):
(7_2_3): u[2,3] - y[2,3] <= 0
(7_3_2): u[3,2] - y[3,2] <= 0
(7_2_4): u[2,4] - y[2,4] <= 0
(7_4_2): u[4,2] - y[4,2] <= 0
(7_2_5): u[2,5] - y[2,5] <= 0
(7_5_2): u[5,2] - y[5,2] <= 0
(7_2_6): u[2,6] - y[2,6] <= 0
(7_6_2): u[6,2] - y[6,2] <= 0
(7_3_4): u[3,4] - y[3,4] <= 0
(7_4_3): u[4,3] - y[4,3] <= 0
(7_3_5): u[3,5] - y[3,5] <= 0
(7_5_3): u[5,3] - y[5,3] <= 0
(7_3_6): u[3,6] - y[3,6] <= 0
(7_6_3): u[6,3] - y[6,3] <= 0
(7_4_5): u[4,5] - y[4,5] <= 0
(7_5_4): u[5,4] - y[5,4] <= 0
(7_4_6): u[4,6] - y[4,6] <= 0
(7_6_4): u[6,4] - y[6,4] <= 0
(7_5_6): u[5,6] - y[5,6] <= 0
(7_6_5): u[6,5] - y[6,5] <= 0


\\Eq (9):
(8_2_3): y[2,3] + y[3,2] = 1
(8_2_4): y[2,4] + y[4,2] = 1
(8_2_5): y[2,5] + y[5,2] = 1
(8_2_6): y[2,6] + y[6,2] = 1
(8_3_4): y[3,4] + y[4,3] = 1
(8_3_5): y[3,5] + y[5,3] = 1
(8_3_6): y[3,6] + y[6,3] = 1
(8_4_5): y[4,5] + y[5,4] = 1
(8_4_6): y[4,6] + y[6,4] = 1
(8_5_6): y[5,6] + y[6,5] = 1


\\Eq (10):
(9_2_3): y[2,3] = 1
(9_4_6): y[4,6] = 1
(9_5_6): y[5,6] = 1


\\
Bounds

\\
Binaries
x[1,2] x[1,6] x[1,7] x[1,8]   
x[2,3] x[2,4] x[2,5] x[2,6] x[2,7] x[2,8] x[2,9] x[2,10] x[2,11] x[3,1] x[3,6] x[3,7] x[3,8] x[3,9] x[3,10] x[3,11] x[4,1] x[4,6] x[4,7] x[4,8] x[4,9] x[4,10] x[4,11]
x[5,1] x[5,6] x[5,7] x[5,8] x[5,9] x[5,10] x[5,11]
x[6,2] x[6,3] x[6,4] x[6,5] x[6,8] x[6,9] x[6,10] x[6,11]
x[7,2] x[7,3] x[7,4] x[7,5] x[7,8] x[7,9] x[7,10] x[7,11]
x[8,2] x[8,3] x[8,4] x[8,5] x[8,6] x[8,7] x[8,9] x[8,10] x[8,11]
x[9,2] x[9,3] x[9,4] x[9,5] x[9,1] 
x[10,2] x[10,3] x[10,4] x[10,5] x[10,1] 
x[11,2] x[11,3] x[11,4] x[11,5] x[11,1]
z[1] z[2] z[3] z[4] z[5] z[6] z[7] z[8] z[9] z[10] z[11]

